
Gurobi 11.0.3 (linux64) logging started Tue Sep 10 15:27:43 2024

Set parameter LogFile to value "resources/logs/400_t1_r1_T3.0.log"
Gurobi Optimizer version 11.0.3 build v11.0.3rc0 (linux64 - "Ubuntu 22.04.4 LTS")

CPU model: 12th Gen Intel(R) Core(TM) i9-12900, instruction set [SSE2|AVX|AVX2]
Thread count: 12 physical cores, 24 logical processors, using up to 24 threads

Optimize a model with 12424416 rows, 14523128 columns and 172614272 nonzeros
Model fingerprint: 0x399f4b20
Variable types: 8698164 continuous, 5824964 integer (5788872 binary)
Coefficient statistics:
  Matrix range     [6e-08, 1e+04]
  Objective range  [1e-08, 2e+00]
  Bounds range     [1e+00, 1e+00]
  RHS range        [1e-06, 1e+04]

Processing user MIP start: 0 nodes explored in subMIP, total elapsed time 5s
Processing user MIP start: 0 nodes explored in subMIP, total elapsed time 10s
User MIP start produced solution with objective 15097.4 (13.47s)
User MIP start produced solution with objective 15079.2 (13.84s)
User MIP start produced solution with objective 15076.9 (14.22s)
User MIP start produced solution with objective 15074.9 (14.61s)
User MIP start produced solution with objective 15071.5 (15.01s)
Processing user MIP start: 0 nodes explored in subMIP, total elapsed time 15s
User MIP start produced solution with objective 15068.7 (15.38s)
User MIP start produced solution with objective 15068.7 (16.18s)
Loaded user MIP start with objective 15068.7
Processed MIP start in 15.80 seconds (21.14 work units)

Presolve removed 2887206 rows and 2887168 columns (presolve time = 6s) ...
Presolve removed 4285517 rows and 3384062 columns (presolve time = 11s) ...
Presolve removed 4285548 rows and 3568059 columns (presolve time = 15s) ...
Presolve removed 4607261 rows and 3568060 columns (presolve time = 20s) ...
Presolve removed 4607267 rows and 3618267 columns (presolve time = 27s) ...
Presolve removed 4607267 rows and 3618267 columns (presolve time = 31s) ...
Presolve removed 4647789 rows and 3618267 columns (presolve time = 35s) ...
Presolve removed 4647789 rows and 3618269 columns (presolve time = 40s) ...
Presolve removed 4647789 rows and 3618269 columns (presolve time = 45s) ...
Presolve removed 4647789 rows and 3621887 columns (presolve time = 50s) ...
Presolve removed 4647789 rows and 3621887 columns (presolve time = 55s) ...
Presolve removed 4647789 rows and 3621887 columns (presolve time = 61s) ...
Presolve removed 4647789 rows and 3621887 columns (presolve time = 65s) ...
Presolve removed 4647789 rows and 3621887 columns (presolve time = 70s) ...
Presolve removed 4647789 rows and 3621887 columns (presolve time = 76s) ...
Presolve removed 4652926 rows and 4715912 columns (presolve time = 81s) ...
Presolve removed 4652926 rows and 4715912 columns (presolve time = 85s) ...
Presolve removed 4652926 rows and 4715912 columns (presolve time = 90s) ...
Presolve removed 4652926 rows and 4715912 columns (presolve time = 95s) ...
Presolve removed 4652926 rows and 4715912 columns (presolve time = 100s) ...
Presolve removed 4652933 rows and 4715912 columns (presolve time = 105s) ...
Presolve removed 4652933 rows and 4715912 columns (presolve time = 110s) ...
Presolve removed 4652933 rows and 4715912 columns (presolve time = 115s) ...
Presolve removed 9253737 rows and 4715912 columns (presolve time = 120s) ...
Presolve removed 9253737 rows and 4715912 columns (presolve time = 125s) ...
Presolve removed 9253737 rows and 4715912 columns (presolve time = 130s) ...
Presolve removed 9253737 rows and 4715912 columns (presolve time = 135s) ...
Presolve removed 9253737 rows and 4715912 columns (presolve time = 140s) ...
Presolve removed 9253737 rows and 4715912 columns (presolve time = 145s) ...
Presolve removed 9253737 rows and 4715912 columns (presolve time = 150s) ...
Presolve removed 9253737 rows and 4715912 columns (presolve time = 155s) ...
Presolve removed 9253737 rows and 4715912 columns (presolve time = 160s) ...
Presolve removed 9253737 rows and 4715912 columns (presolve time = 165s) ...
Presolve removed 9253737 rows and 4715916 columns (presolve time = 170s) ...
Presolve removed 9253737 rows and 4715918 columns (presolve time = 175s) ...
Presolve removed 9253737 rows and 4715921 columns (presolve time = 180s) ...
Presolve removed 9253737 rows and 4715924 columns (presolve time = 185s) ...
Presolve removed 9253737 rows and 4715926 columns (presolve time = 190s) ...
Presolve removed 9253737 rows and 4715930 columns (presolve time = 195s) ...
Presolve removed 9253737 rows and 4715933 columns (presolve time = 200s) ...
Presolve removed 9253737 rows and 4715937 columns (presolve time = 205s) ...
Presolve removed 9253737 rows and 4715942 columns (presolve time = 210s) ...
Presolve removed 9253737 rows and 4715943 columns (presolve time = 215s) ...
Presolve removed 9253737 rows and 4715947 columns (presolve time = 220s) ...
Presolve removed 9253737 rows and 4715950 columns (presolve time = 225s) ...
Presolve removed 9261835 rows and 4715954 columns (presolve time = 230s) ...
Presolve removed 9682871 rows and 5159807 columns (presolve time = 235s) ...
Presolve removed 9731372 rows and 5159813 columns (presolve time = 240s) ...
Presolve removed 9731372 rows and 5159813 columns (presolve time = 245s) ...
Presolve removed 9731372 rows and 5159813 columns (presolve time = 251s) ...
Presolve removed 9731661 rows and 5159813 columns (presolve time = 255s) ...
Presolve removed 9731661 rows and 5159813 columns (presolve time = 260s) ...
Presolve removed 9731848 rows and 5160000 columns (presolve time = 265s) ...
Presolve removed 9732260 rows and 5160412 columns (presolve time = 270s) ...
Presolve removed 9732260 rows and 5160412 columns (presolve time = 275s) ...
Presolve removed 9732260 rows and 5160412 columns (presolve time = 280s) ...
Presolve removed 9732260 rows and 5160412 columns (presolve time = 285s) ...
Presolve removed 9732261 rows and 5160412 columns (presolve time = 290s) ...
Presolve removed 9732261 rows and 5160412 columns (presolve time = 295s) ...
Presolve removed 9732261 rows and 5160412 columns (presolve time = 300s) ...
Presolve removed 9732261 rows and 5160412 columns (presolve time = 305s) ...
Presolve removed 9732261 rows and 5160412 columns (presolve time = 310s) ...
Presolve removed 9732261 rows and 5160412 columns (presolve time = 315s) ...
Presolve removed 9732261 rows and 5160412 columns (presolve time = 320s) ...
Presolve removed 9732261 rows and 5160412 columns (presolve time = 325s) ...
Presolve removed 9732261 rows and 5160412 columns (presolve time = 330s) ...
Presolve removed 9732261 rows and 5160412 columns (presolve time = 335s) ...
Presolve removed 9732261 rows and 5160412 columns (presolve time = 340s) ...
Presolve removed 9732265 rows and 5160412 columns (presolve time = 345s) ...
Presolve removed 9732265 rows and 5160412 columns (presolve time = 351s) ...
Presolve removed 9732265 rows and 5160412 columns (presolve time = 356s) ...
Presolve removed 9732385 rows and 5160460 columns (presolve time = 360s) ...
Presolve removed 9732385 rows and 5160460 columns (presolve time = 365s) ...
Presolve removed 9732385 rows and 5160460 columns (presolve time = 370s) ...
Presolve removed 9732385 rows and 5160460 columns (presolve time = 375s) ...
Presolve removed 9732385 rows and 5160460 columns (presolve time = 380s) ...
Presolve removed 9732385 rows and 5160460 columns (presolve time = 385s) ...
Presolve removed 9732385 rows and 5160460 columns (presolve time = 390s) ...
Presolve removed 9732385 rows and 5160460 columns (presolve time = 397s) ...
Presolve removed 9732385 rows and 5160460 columns (presolve time = 401s) ...
Presolve removed 9732385 rows and 5160460 columns (presolve time = 405s) ...
Presolve removed 9732385 rows and 5160460 columns (presolve time = 410s) ...
Presolve removed 9732385 rows and 5160460 columns (presolve time = 415s) ...
Presolve removed 9732385 rows and 5160460 columns (presolve time = 420s) ...
Presolve removed 9732385 rows and 5160460 columns (presolve time = 425s) ...
Presolve removed 9732385 rows and 5160460 columns (presolve time = 430s) ...
Presolve removed 9732385 rows and 5160460 columns (presolve time = 436s) ...
Presolve removed 9732385 rows and 5160460 columns (presolve time = 440s) ...
Presolve removed 9732385 rows and 5160460 columns (presolve time = 445s) ...
Presolve removed 9732385 rows and 5160460 columns (presolve time = 450s) ...
Presolve removed 9732385 rows and 5160460 columns (presolve time = 456s) ...
Presolve removed 9732385 rows and 5160460 columns (presolve time = 461s) ...
Presolve removed 9732385 rows and 5160460 columns (presolve time = 466s) ...
Presolve removed 9732385 rows and 5160460 columns (presolve time = 471s) ...
Presolve removed 9732385 rows and 5160460 columns (presolve time = 475s) ...
Presolve removed 9732385 rows and 5160460 columns (presolve time = 480s) ...
Presolve removed 9732385 rows and 5160460 columns (presolve time = 485s) ...
Presolve removed 9732385 rows and 5160460 columns (presolve time = 490s) ...
Presolve removed 9732385 rows and 5160460 columns (presolve time = 496s) ...
Presolve removed 9732385 rows and 5160460 columns (presolve time = 500s) ...
Presolve removed 9732385 rows and 5160460 columns (presolve time = 505s) ...
Presolve removed 9732385 rows and 5160460 columns (presolve time = 511s) ...
Presolve removed 9732385 rows and 5160460 columns (presolve time = 515s) ...
Presolve removed 9732385 rows and 5160460 columns (presolve time = 521s) ...
Presolve removed 9732385 rows and 5160460 columns (presolve time = 526s) ...
Presolve removed 9732385 rows and 5160460 columns (presolve time = 530s) ...
Presolve removed 9732385 rows and 5160460 columns (presolve time = 536s) ...
Presolve removed 9732385 rows and 5160460 columns (presolve time = 541s) ...
Presolve removed 9732385 rows and 5160460 columns (presolve time = 546s) ...
Presolve removed 9732385 rows and 5160460 columns (presolve time = 550s) ...
Presolve removed 9732385 rows and 5160460 columns (presolve time = 556s) ...
Presolve removed 9732385 rows and 5160460 columns (presolve time = 560s) ...
Presolve removed 9732385 rows and 5160460 columns (presolve time = 565s) ...
Presolve removed 9732385 rows and 5160460 columns (presolve time = 570s) ...
Presolve removed 9732385 rows and 5160460 columns (presolve time = 575s) ...
Presolve removed 9732385 rows and 5160460 columns (presolve time = 580s) ...
Presolve removed 9732385 rows and 5160460 columns (presolve time = 585s) ...
Presolve removed 9732385 rows and 5160460 columns (presolve time = 590s) ...
Presolve removed 9732385 rows and 5160460 columns (presolve time = 595s) ...
Presolve removed 9732385 rows and 5160460 columns (presolve time = 600s) ...
Presolve removed 9732385 rows and 5160460 columns (presolve time = 605s) ...
Presolve removed 9732385 rows and 5160460 columns (presolve time = 610s) ...
Presolve removed 9732385 rows and 5160460 columns (presolve time = 615s) ...
Presolve removed 9732385 rows and 5160460 columns (presolve time = 620s) ...
Presolve removed 9732385 rows and 5160460 columns (presolve time = 625s) ...
Presolve removed 9732385 rows and 5160460 columns (presolve time = 630s) ...
Presolve removed 9732385 rows and 5160460 columns (presolve time = 635s) ...
Presolve removed 9732385 rows and 5160460 columns (presolve time = 640s) ...
Presolve removed 9732385 rows and 5160460 columns (presolve time = 645s) ...
Presolve removed 9732385 rows and 5160460 columns (presolve time = 650s) ...
Presolve removed 9732385 rows and 5160460 columns (presolve time = 655s) ...
Presolve removed 9732385 rows and 5160460 columns (presolve time = 660s) ...
Presolve removed 9732385 rows and 5160460 columns (presolve time = 665s) ...
Presolve removed 9732385 rows and 5160460 columns (presolve time = 670s) ...
Presolve removed 9732385 rows and 5160460 columns (presolve time = 675s) ...
Presolve removed 9732385 rows and 5160460 columns (presolve time = 680s) ...
Presolve removed 9732385 rows and 5160460 columns (presolve time = 685s) ...
Presolve removed 9732385 rows and 5160460 columns (presolve time = 690s) ...
Presolve removed 9732385 rows and 5160460 columns (presolve time = 695s) ...
Presolve removed 9732385 rows and 5160460 columns (presolve time = 700s) ...
Presolve removed 9732385 rows and 5160460 columns (presolve time = 705s) ...
Presolve removed 9732385 rows and 5160460 columns (presolve time = 710s) ...
Presolve removed 9732385 rows and 5160460 columns (presolve time = 715s) ...
Presolve removed 9732385 rows and 5160460 columns (presolve time = 720s) ...
Presolve removed 9732385 rows and 5160460 columns (presolve time = 725s) ...
Presolve removed 9732385 rows and 5160460 columns (presolve time = 730s) ...
Presolve removed 9732385 rows and 5160460 columns (presolve time = 735s) ...
Presolve removed 9732385 rows and 5160460 columns (presolve time = 740s) ...
Presolve removed 9732385 rows and 5160460 columns (presolve time = 745s) ...
Presolve removed 9732385 rows and 5160460 columns (presolve time = 750s) ...
Presolve removed 9732385 rows and 5160460 columns (presolve time = 755s) ...
Presolve removed 9732385 rows and 5160460 columns (presolve time = 760s) ...
Presolve removed 9732385 rows and 5160460 columns (presolve time = 765s) ...
Presolve removed 9732385 rows and 5160460 columns (presolve time = 770s) ...
Presolve removed 9732385 rows and 5160460 columns (presolve time = 775s) ...
Presolve removed 9732385 rows and 5160460 columns (presolve time = 780s) ...
Presolve removed 9732385 rows and 5160460 columns (presolve time = 785s) ...
Presolve removed 9732385 rows and 5160460 columns (presolve time = 790s) ...
Presolve removed 9732385 rows and 5160460 columns (presolve time = 795s) ...
Presolve removed 9732385 rows and 5160460 columns (presolve time = 800s) ...
Presolve removed 9732385 rows and 5160460 columns (presolve time = 805s) ...
Presolve removed 9732385 rows and 5160460 columns (presolve time = 810s) ...
Presolve removed 9732385 rows and 5160460 columns (presolve time = 815s) ...
Presolve removed 9732385 rows and 5160460 columns (presolve time = 820s) ...
Presolve removed 9732385 rows and 5160460 columns (presolve time = 825s) ...
Presolve removed 9732385 rows and 5160460 columns (presolve time = 830s) ...
Presolve removed 9732385 rows and 5160460 columns (presolve time = 835s) ...
Presolve removed 9732385 rows and 5160460 columns (presolve time = 840s) ...
Presolve removed 9732385 rows and 5160460 columns (presolve time = 845s) ...
Presolve removed 9732385 rows and 5160460 columns (presolve time = 850s) ...
Presolve removed 9732385 rows and 5160460 columns (presolve time = 855s) ...
Presolve removed 9732385 rows and 5160460 columns (presolve time = 860s) ...
Presolve removed 9732385 rows and 5160460 columns (presolve time = 865s) ...
Presolve removed 9732385 rows and 5160460 columns (presolve time = 870s) ...
Presolve removed 9732385 rows and 5160460 columns (presolve time = 875s) ...
Presolve removed 9732385 rows and 5160460 columns (presolve time = 880s) ...
Presolve removed 9732385 rows and 5160460 columns (presolve time = 885s) ...
Presolve removed 9732385 rows and 5160460 columns (presolve time = 890s) ...
Presolve removed 9732385 rows and 5160460 columns (presolve time = 895s) ...
Presolve removed 9732385 rows and 5160460 columns (presolve time = 900s) ...
Presolve removed 9732385 rows and 5160460 columns (presolve time = 905s) ...
Presolve removed 9732385 rows and 5160460 columns (presolve time = 910s) ...
Presolve removed 9732385 rows and 5160460 columns (presolve time = 915s) ...
Presolve removed 9732385 rows and 5160460 columns (presolve time = 920s) ...
Presolve removed 9732385 rows and 5160460 columns (presolve time = 925s) ...
Presolve removed 9732385 rows and 5160460 columns (presolve time = 930s) ...
Presolve removed 9732385 rows and 5160460 columns (presolve time = 935s) ...
Presolve removed 9732385 rows and 5160460 columns (presolve time = 940s) ...
Presolve removed 9732385 rows and 5160460 columns (presolve time = 945s) ...
Presolve removed 9732385 rows and 5160460 columns (presolve time = 950s) ...
Presolve removed 9732385 rows and 5160460 columns (presolve time = 955s) ...
Presolve removed 9732385 rows and 5160460 columns (presolve time = 960s) ...
Presolve removed 9732385 rows and 5160460 columns (presolve time = 965s) ...
Presolve removed 9732385 rows and 5160460 columns (presolve time = 970s) ...
Presolve removed 9732385 rows and 5160460 columns (presolve time = 975s) ...
Presolve removed 9732385 rows and 5160460 columns (presolve time = 980s) ...
Presolve removed 9732385 rows and 5160460 columns (presolve time = 985s) ...
Presolve removed 9732385 rows and 5160460 columns (presolve time = 990s) ...
Presolve removed 9732385 rows and 5160460 columns (presolve time = 995s) ...
Presolve removed 9732385 rows and 5160460 columns (presolve time = 1000s) ...
Presolve removed 9732385 rows and 5160460 columns (presolve time = 1005s) ...
Presolve removed 9732385 rows and 5160460 columns (presolve time = 1010s) ...
Presolve removed 9732385 rows and 5160460 columns (presolve time = 1015s) ...
Presolve removed 9732385 rows and 5160460 columns (presolve time = 1020s) ...
Presolve removed 9732385 rows and 5160460 columns (presolve time = 1025s) ...
Presolve removed 9732385 rows and 5160460 columns (presolve time = 1030s) ...
Presolve removed 9732385 rows and 5160460 columns (presolve time = 1035s) ...
Presolve removed 9732385 rows and 5160460 columns (presolve time = 1040s) ...
Presolve removed 9732385 rows and 5160460 columns (presolve time = 1045s) ...
Presolve removed 9732385 rows and 5160460 columns (presolve time = 1050s) ...
Presolve removed 9732385 rows and 5160460 columns (presolve time = 1055s) ...
Presolve removed 9732385 rows and 5160460 columns (presolve time = 1060s) ...
Presolve removed 9732385 rows and 5160460 columns (presolve time = 1065s) ...
Presolve removed 9732385 rows and 5160460 columns (presolve time = 1070s) ...
Presolve removed 9732385 rows and 5160460 columns (presolve time = 1075s) ...
Presolve removed 9732385 rows and 5160460 columns (presolve time = 1080s) ...
Presolve removed 9732385 rows and 5160460 columns (presolve time = 1085s) ...
Presolve removed 9732385 rows and 5160460 columns (presolve time = 1090s) ...
Presolve removed 9732385 rows and 5160460 columns (presolve time = 1095s) ...
Presolve removed 9732385 rows and 5160460 columns (presolve time = 1100s) ...
Presolve removed 9732385 rows and 5160460 columns (presolve time = 1105s) ...
Presolve removed 9732385 rows and 5160460 columns (presolve time = 1110s) ...
Presolve removed 9732385 rows and 5160460 columns (presolve time = 1115s) ...
Presolve removed 9732385 rows and 5160460 columns (presolve time = 1120s) ...
Presolve removed 9732385 rows and 5160460 columns (presolve time = 1125s) ...
Presolve removed 9732385 rows and 5160460 columns (presolve time = 1130s) ...
Presolve removed 9732385 rows and 5160460 columns (presolve time = 1135s) ...
Presolve removed 9732385 rows and 5160460 columns (presolve time = 1140s) ...
Presolve removed 9732385 rows and 5160460 columns (presolve time = 1145s) ...
Presolve removed 9732385 rows and 5160460 columns (presolve time = 1150s) ...
Presolve removed 9732385 rows and 5160460 columns (presolve time = 1155s) ...
Presolve removed 9732385 rows and 5160460 columns (presolve time = 1160s) ...
Presolve removed 9732385 rows and 5160460 columns (presolve time = 1165s) ...
Presolve removed 9732385 rows and 5160460 columns (presolve time = 1170s) ...
Presolve removed 9732385 rows and 5160460 columns (presolve time = 1175s) ...
Presolve removed 9732385 rows and 5160460 columns (presolve time = 1180s) ...
Presolve removed 9732385 rows and 5160460 columns (presolve time = 1185s) ...
Presolve removed 9732385 rows and 5160460 columns (presolve time = 1190s) ...
Presolve removed 9732385 rows and 5160460 columns (presolve time = 1195s) ...
Presolve removed 9732385 rows and 5160460 columns (presolve time = 1200s) ...
Presolve removed 9732385 rows and 5160460 columns (presolve time = 1205s) ...
Presolve removed 9732385 rows and 5160460 columns (presolve time = 1210s) ...
Presolve removed 9732385 rows and 5160460 columns (presolve time = 1215s) ...
Presolve removed 9732385 rows and 5160460 columns (presolve time = 1220s) ...
Presolve removed 9732385 rows and 5160460 columns (presolve time = 1225s) ...
Presolve removed 9732385 rows and 5160460 columns (presolve time = 1230s) ...
Presolve removed 9732385 rows and 5160460 columns (presolve time = 1235s) ...
Presolve removed 9732385 rows and 5160460 columns (presolve time = 1240s) ...
Presolve removed 9732385 rows and 5160460 columns (presolve time = 1245s) ...
Presolve removed 9732385 rows and 5160460 columns (presolve time = 1250s) ...
Presolve removed 9732385 rows and 5160460 columns (presolve time = 1255s) ...
Presolve removed 9732385 rows and 5160460 columns (presolve time = 1260s) ...
Presolve removed 9732385 rows and 5160460 columns (presolve time = 1265s) ...
Presolve removed 9732385 rows and 5160460 columns (presolve time = 1270s) ...
Presolve removed 9732385 rows and 5160460 columns (presolve time = 1275s) ...
Presolve removed 9732385 rows and 5160460 columns (presolve time = 1280s) ...
Presolve removed 9732385 rows and 5160460 columns (presolve time = 1285s) ...
Presolve removed 9732385 rows and 5160460 columns (presolve time = 1290s) ...
Presolve removed 9732385 rows and 5160460 columns (presolve time = 1295s) ...
Presolve removed 9732385 rows and 5160460 columns (presolve time = 1300s) ...
Presolve removed 9732385 rows and 5160460 columns (presolve time = 1305s) ...
Presolve removed 9732385 rows and 5160460 columns (presolve time = 1310s) ...
Presolve removed 9732385 rows and 5160460 columns (presolve time = 1315s) ...
Presolve removed 9732385 rows and 5160460 columns (presolve time = 1320s) ...
Presolve removed 9732385 rows and 5160460 columns (presolve time = 1325s) ...
Presolve removed 9732385 rows and 5160460 columns (presolve time = 1330s) ...
Presolve removed 9732385 rows and 5160460 columns (presolve time = 1335s) ...
Presolve removed 9732385 rows and 5160460 columns (presolve time = 1340s) ...
Presolve removed 9732385 rows and 5160460 columns (presolve time = 1345s) ...
Presolve removed 9732385 rows and 5160460 columns (presolve time = 1350s) ...
Presolve removed 9732385 rows and 5160460 columns (presolve time = 1355s) ...
Presolve removed 9732385 rows and 5160460 columns (presolve time = 1360s) ...
Presolve removed 9732385 rows and 5160460 columns (presolve time = 1365s) ...
Presolve removed 9732385 rows and 5160460 columns (presolve time = 1370s) ...
Presolve removed 9732385 rows and 5160460 columns (presolve time = 1375s) ...
Presolve removed 9732385 rows and 5160460 columns (presolve time = 1380s) ...
Presolve removed 9732385 rows and 5160460 columns (presolve time = 1385s) ...
Presolve removed 9732385 rows and 5160460 columns (presolve time = 1390s) ...
Presolve removed 9732385 rows and 5160460 columns (presolve time = 1395s) ...
Presolve removed 9732385 rows and 5160460 columns (presolve time = 1400s) ...
Presolve removed 9732385 rows and 5160460 columns (presolve time = 1405s) ...
Presolve removed 9732385 rows and 5160460 columns (presolve time = 1410s) ...
Presolve removed 9732385 rows and 5160460 columns (presolve time = 1415s) ...
Presolve removed 9732385 rows and 5160460 columns (presolve time = 1420s) ...
Presolve removed 9732385 rows and 5160460 columns (presolve time = 1425s) ...
Presolve removed 9732385 rows and 5160460 columns (presolve time = 1430s) ...
Presolve removed 9732385 rows and 5160460 columns (presolve time = 1435s) ...
Presolve removed 9732385 rows and 5160460 columns (presolve time = 1440s) ...
Presolve removed 9732385 rows and 5160460 columns (presolve time = 1445s) ...
Presolve removed 9732385 rows and 5160460 columns (presolve time = 1450s) ...
Presolve removed 9732385 rows and 5160460 columns (presolve time = 1455s) ...
Presolve removed 9732385 rows and 5160460 columns (presolve time = 1460s) ...
Presolve removed 9732385 rows and 5160460 columns (presolve time = 1465s) ...
Presolve removed 9732385 rows and 5160460 columns (presolve time = 1470s) ...
Presolve removed 9732385 rows and 5160460 columns (presolve time = 1475s) ...
Presolve removed 9732385 rows and 5160460 columns (presolve time = 1480s) ...
Presolve removed 9732385 rows and 5160460 columns (presolve time = 1485s) ...
Presolve removed 9732385 rows and 5160460 columns (presolve time = 1490s) ...
Presolve removed 9732385 rows and 5160460 columns (presolve time = 1495s) ...
Presolve removed 9732385 rows and 5160460 columns (presolve time = 1500s) ...
Presolve removed 9732385 rows and 5160460 columns (presolve time = 1505s) ...
Presolve removed 9732385 rows and 5160460 columns (presolve time = 1510s) ...
Presolve removed 9732385 rows and 5160460 columns (presolve time = 1515s) ...
Presolve removed 9732385 rows and 5160460 columns (presolve time = 1520s) ...
Presolve removed 9732385 rows and 5160460 columns (presolve time = 1525s) ...
Presolve removed 9732385 rows and 5160460 columns (presolve time = 1530s) ...
Presolve removed 9732385 rows and 5160460 columns (presolve time = 1535s) ...
Presolve removed 9732385 rows and 5160460 columns (presolve time = 1540s) ...
Presolve removed 9732385 rows and 5160460 columns (presolve time = 1545s) ...
Presolve removed 9732385 rows and 5160460 columns (presolve time = 1550s) ...
Presolve removed 9732385 rows and 5160460 columns (presolve time = 1555s) ...
Presolve removed 9732385 rows and 5160460 columns (presolve time = 1560s) ...
Presolve removed 9732385 rows and 5160460 columns (presolve time = 1565s) ...
Presolve removed 9732385 rows and 5160460 columns (presolve time = 1570s) ...
Presolve removed 9732385 rows and 5160460 columns (presolve time = 1575s) ...
Presolve removed 9732385 rows and 5160460 columns (presolve time = 1580s) ...
Presolve removed 9732396 rows and 5160471 columns (presolve time = 1585s) ...
Presolve removed 9732396 rows and 5160471 columns (presolve time = 1590s) ...
Presolve removed 9732396 rows and 5160471 columns (presolve time = 1595s) ...
Presolve removed 9732396 rows and 5160471 columns (presolve time = 1601s) ...
Presolve removed 9732426 rows and 5160497 columns (presolve time = 1605s) ...
Presolve removed 9732426 rows and 5160497 columns (presolve time = 1619s) ...
Presolve removed 9732426 rows and 5160497 columns (presolve time = 1624s) ...
Presolve removed 9731286 rows and 5159357 columns
Presolve time: 1623.61s
Presolved: 2693130 rows, 9363771 columns, 62261727 nonzeros
Variable types: 4709744 continuous, 4654027 integer (4629010 binary)
Deterministic concurrent LP optimizer: primal simplex, dual simplex, and barrier
Showing barrier log only...

Root barrier log...

Elapsed ordering time = 14s
Elapsed ordering time = 15s
Elapsed ordering time = 20s
Elapsed ordering time = 25s
Elapsed ordering time = 30s
Elapsed ordering time = 35s
Elapsed ordering time = 40s
Elapsed ordering time = 45s
Elapsed ordering time = 50s
Elapsed ordering time = 55s
Elapsed ordering time = 60s
Elapsed ordering time = 65s
Elapsed ordering time = 70s
Elapsed ordering time = 75s
Elapsed ordering time = 80s
Elapsed ordering time = 85s
Elapsed ordering time = 90s
